NAME: CMT2_4
TYPE: CVRP
COMMENT: 835.26 - Cluster Nr.4
DIMENSION: 9
CAPACITY: 140
EDGE_WEIGHT_TYPE: EUC_2D
NODE_COORD_TYPE: TWOD_COORDS
NODE_COORD_SECTION: 
3 15 5
7 40 40
8 26 13
9 15 14
1 16 19
6 12 17
2 22 22
4 6 25
5 11 28
DEPOT_SECTION: 
7
-1
DEMAND_SECTION: 
5 6
9 11
7 0
8 12
1 18
6 15
2 18
4 26
3 28
EOF
